15302.94,45.51,51.7
13141.64,52.99,60.2
14944.48,46.6,52.94
13725.48,50.74,57.64
13528.51,51.48,58.48
14135.5,49.27,55.97
13786.46,50.51,57.38
13698.26,50.84,57.75
12437.89,55.99,63.6
14990.13,46.46,52.78
13663.74,50.97,57.9
13928.57,50.0,56.8
15305.89,45.5,51.69
15659.92,44.47,50.52
12788.69,54.45,61.86
13220.57,52.68,59.84
15590.51,44.67,50.74
15236.12,45.71,51.92
14537.51,47.9,54.42
12960.32,53.73,61.04
